p cnf 35 109
3 -1 0
3 -2 0
1 2 -3 0
5 3 0
5 -4 0
-3 4 -5 0
8 -9 -10 0
-8 9 -10 0
8 9 10 0
-8 -9 10 0
11 -7 0
11 10 0
7 -10 -11 0
-12 -6 0
-12 11 0
6 -11 12 0
-12 6 -13 0
12 -6 -13 0
-12 -6 13 0
12 6 13 0
14 3 0
14 13 0
-3 -13 -14 0
-5 14 -15 0
5 -14 -15 0
-5 -14 15 0
5 14 15 0
-6 9 -17 0
6 -9 -17 0
-6 -9 17 0
6 9 17 0
-18 -16 0
-18 -17 0
16 17 18 0
4 -9 -19 0
-4 9 -19 0
4 9 19 0
-4 -9 19 0
6 19 -20 0
-6 -19 -20 0
6 -19 20 0
-6 19 20 0
21 -11 0
21 20 0
11 -20 -21 0
22 6 0
22 -9 0
-6 9 -22 0
23 2 0
23 4 0
-2 -4 -23 0
-24 -22 0
-24 -23 0
22 23 24 0
-25 9 -26 0
25 -9 -26 0
-25 -9 26 0
25 9 26 0
27 24 0
27 26 0
-24 -26 -27 0
28 -21 0
28 -27 0
21 27 -28 0
29 -10 -30 0
-29 10 -30 0
29 10 30 0
-29 -10 30 0
-31 2 0
-31 -6 0
-2 6 31 0
-32 30 0
-32 -31 0
-30 31 32 0
33 -28 0
33 32 0
28 -32 -33 0
34 18 0
34 -33 0
-18 33 -34 0
35 15 0
35 -34 0
-15 34 -35 0
-15 -21 -3 0
26 15 -19 -6 27 -31 0
15 22 20 0
-34 -20 0
-8 -27 -23 24 -3 -18 0
19 -2 -22 9 -31 0
-4 -21 0
33 -8 -35 0
-26 14 -23 7 0
7 29 -14 -32 8 -33 0
20 -15 4 -9 0
-26 2 0
-32 19 -16 -12 0
11 25 -30 9 0
-1 20 -2 32 0
26 -31 34 0
-3 24 2 12 17 0
-24 20 -15 -21 0
-2 35 0
21 28 9 11 0
-25 -29 -32 10 0
-30 15 -4 0
11 -4 -34 -22 0
-29 -21 0
7 3 -6 31 -17 -34 0
35 0
